(set-logic ALL)
(set-option :produce-models true)
(declare-sort BoundSet 0)
(declare-sort UnboundSet 0)
(set-option :finite-model-find true)
(declare-fun IsAtTable (BoundSet) Bool)
(declare-fun IsSittingBehindTable (BoundSet) Bool)
(declare-fun HasBeigeBlazer (BoundSet) Bool)
(assert (not (=> (exists ((b BoundSet)) (IsAtTable b)) (exists ((a BoundSet)) (exists ((d BoundSet)) (and (IsSittingBehindTable a) (HasBeigeBlazer d)))))))
(check-sat)
(get-model)